Ipopt 3.14.13: outlev = 0


******************************************************************************
This program contains Ipopt, a library for large-scale nonlinear optimization.
 Ipopt is released as open source code under the Eclipse Public License (EPL).
         For more information visit https://github.com/coin-or/Ipopt
******************************************************************************

 
Ipopt 3.14.13: Optimal Solution Found

suffix ipopt_zU_out OUT;
suffix ipopt_zL_out OUT;
total_cost: 9083210.456503557 

*******************************************************************************
Gurobi 12.0.1: Set parameter LogToConsole to value 1
  tech:outlev = 1
Set parameter Presolve to value 1
  pre:solve = 1
Set parameter TimeLimit to value 3600
  lim:time = 3600
  alg:iisfind = 1
Set parameter NumericFocus to value 1
  alg:numericfocus = 1
  cvt:socp = 2
Set parameter Method to value 3
  alg:method = 3
Set parameter NodeMethod to value 1
  mip:nodemethod = 1
Set parameter ConcurrentMethod to value 3
  alg:concurrentmethod = 3
Set parameter NonConvex to value 2
  qp:nonconvex = 2
Set parameter VarBranch to value 0
  mip:varbranch = 0
Set parameter OBBT to value 1
  mip:obbt = 1
  alg:start = 1
Set parameter InfUnbdInfo to value 1
Gurobi Optimizer version 12.0.1 build v12.0.1rc0 (linux64 - "Debian GNU/Linux 12 (bookworm)")

CPU model: AMD Ryzen Threadripper PRO 5975WX 32-Cores, instruction set [SSE2|AVX|AVX2]
Thread count: 32 physical cores, 64 logical processors, using up to 32 threads

Non-default parameters:
TimeLimit  3600
Method  3
ConcurrentMethod  3
NodeMethod  1
OBBT  1
VarBranch  0
InfUnbdInfo  1
NonConvex  2
NumericFocus  1
Presolve  1

Optimize a model with 516 rows, 4096 columns and 3605 nonzeros
Model fingerprint: 0x1e024171
Model has 174 simple general constraints
  174 ABS
Model has 174 general nonlinear constraints (10440 nonlinear terms)
Variable types: 4096 continuous, 0 integer (0 binary)
Coefficient statistics:
  Matrix range     [9e-12, 6e+01]
  Objective range  [1e+02, 3e+03]
  Bounds range     [9e-02, 3e+09]
  RHS range        [2e-03, 9e+02]
Warning: Model contains large bounds

User MIP start did not produce a new incumbent solution

Presolve model has 174 nlconstr
Added 5046 variables to disaggregate expressions.
Presolve added 490 rows and 0 columns
Presolve removed 0 rows and 476 columns
Presolve time: 0.10s
Presolved: 14926 rows, 8841 columns, 39727 nonzeros
Presolved model has 344 SOS constraint(s)
Presolved model has 2610 bilinear constraint(s)
Presolved model has 174 nonlinear constraint(s)

Solving non-convex MINLP

Variable types: 8497 continuous, 344 integer (344 binary)

Concurrent LP optimizer: primal and dual simplex (primal and dual model)
Showing primal log only...

Root relaxation presolved: 12329 rows, 5818 columns, 34909 nonzeros


Root simplex log...

Iteration    Objective       Primal Inf.    Dual Inf.      Time
       0    1.3255479e+06   1.425265e+10   2.946947e+09      6s

Solved with dual simplex

Root relaxation: objective 1.341970e+06, 4458 iterations, 0.51 seconds (0.09 work units)

    Nodes    |    Current Node    |     Objective Bounds      |     Work
 Expl Unexpl |  Obj  Depth IntInf | Incumbent    BestBd   Gap | It/Node Time

     0     0 1341969.78    0  926          - 1341969.78      -     -    6s
     0     0 1341969.78    0  876          - 1341969.78      -     -    6s
     0     0 1341969.78    0 1069          - 1341969.78      -     -    8s
     0     0 1341969.78    0 1024          - 1341969.78      -     -    8s
     0     0 1341969.78    0 1049          - 1341969.78      -     -    8s
     0     0 1341969.78    0  944          - 1341969.78      -     -   12s
     0     0 1341969.78    0  985          - 1341969.78      -     -   14s
     0     0 1341969.78    0  895          - 1341969.78      -     -   17s
     0     0 1341969.78    0 1115          - 1341969.78      -     -   17s
     0     0 1341969.78    0  814          - 1341969.78      -     -   18s
     0     0 1341969.78    0 1076          - 1341969.78      -     -   18s
     0     0 1341969.78    0  860          - 1341969.78      -     -   19s
     0     0 1341969.78    0 1192          - 1341969.78      -     -   20s
     0     0 1341969.78    0  832          - 1341969.78      -     -   22s
     0     0 1341969.78    0  769          - 1341969.78      -     -   23s
     0     2 1341969.78    0  783          - 1341969.78      -     -   30s
     7    16 1341969.78    3 1156          - 1341969.78      -  1613   37s
    15    32 1341969.78    4 1127          - 1341969.78      -  1604   41s
    63    92 1341969.78    6 1154          - 1341969.78      -  1414   49s
    95   149 1341969.78    7 1114          - 1341969.78      -  1528   59s
   154   281 1341969.78    8 1128          - 1341969.78      -  1586   70s
   302   514 1341969.78   10 1117          - 1341969.78      -  1349   90s
   543   936 1341970.33   12 1064          - 1341969.78      -  1188  135s
   981  1807 1341970.33   15  953          - 1341969.78      -  1160  222s
  1894  5176 1341970.41   25  892          - 1341969.78      -   940  362s
  5799  6704 1341969.92   52  908          - 1341969.78      -   589  439s
  7839  8068 1347243.23   90  851          - 1341969.78      -   553  590s
  9903  9275 infeasible  118               - 1341969.78      -   525  675s
 11440 10662 1341969.78   29  978          - 1341969.78      -   525  732s
 13282 10663 1341969.78   44  170          - 1341969.78      -   515  736s
  NLP heuristic elapsed time = 5.03s
  NLP heuristic elapsed time = 10.01s
 13283 10664 1341969.78   81  170          - 1341969.78      -   515  746s
 13284 10664 1341969.78   26    0          - 1341969.78      -   515  759s
 13285 10665 1341969.82   92  219          - 1341969.78      -   515  765s
 13287 10666 1341970.03   72    1          - 1341969.78      -   515  778s
 13289 10668 1341969.78   75    0          - 1341969.78      -   515  785s
 13290 10668 1341969.78   30  246          - 1341969.78      -   515  790s
 13291 10669 1345539.07   89    0          - 1341969.78      -   515  801s
 13292 10670 1341969.78   32  266          - 1341969.78      -   515  805s
 13293 10670 1341969.85   79    4          - 1341969.78      -   515  827s
 13294 10671 1341969.90   38  246          - 1341969.90      -   515  837s
 13295 10672 1341969.90   26    0          - 1341969.90      -   515  844s
 13296 10672 1341969.90   37  250          - 1341969.90      -   515  845s
 13298 10674 1341969.90   62  279          - 1341969.90      -   515  851s
 13299 10674 1341970.06   49    6          - 1341969.90      -   515  869s
 13300 10675 1341969.90   42  262          - 1341969.90      -   515  871s
 13301 10676 1341969.90   66    2          - 1341969.90      -   515  878s
 13302 10676 1341969.90   16    2          - 1341969.90      -   514  897s
 13303 10677 1341969.90   38    2          - 1341969.90      -   514  910s
 13310 10691 1341969.90   15  734          - 1341969.90      -   521  916s
 13318 10702 1341969.90   16  715          - 1341969.90      -   522  924s
 13334 10727 1341969.90   17  711          - 1341969.90      -   523  932s
 13364 10749 1341969.90   18  736          - 1341969.90      -   525  942s
 13396 10847 1341969.90   19  727          - 1341969.90      -   529  965s
 13509 10899 1341969.90   21  707          - 1341969.90      -   535 1062s
 13611 10999 1341969.90   22  729          - 1341969.90      -   538 1077s
 13749 11291 1341969.90   23  727          - 1341969.90      -   543 1280s
 14109 11628 1341969.90   27  709          - 1341969.90      -   557 1371s
 14582 11727 1341969.90   30  734          - 1341969.90      -   578 1570s
 14898 15033 1342300.25   35  745          - 1341969.90      -   588 1818s
 18930 16231 1342897.96   91 1000          - 1341969.90      -   602 1976s
 22502 17172 1341969.90   42  770          - 1341969.90      -   580 2097s
 25325 18213 1341969.90   85  847          - 1341969.90      -   566 2222s
 27915 19126 1341969.90  115  954          - 1341969.90      -   558 2386s
 30510 20231 infeasible  136               - 1341969.90      -   550 2510s
 33544 20471 infeasible  153               - 1341969.90      -   541 2654s
 35523 21588 1344011.46   94  871          - 1341969.90      -   544 2810s
 37870 22451 1348615.95  132 1028          - 1341969.90      -   544 2974s
 39045 22059 1341969.90  109  986          - 1341969.90      -   539 2975s
 40381 23152 1342558.10   56  816          - 1341969.90      -   538 3149s
 42831 24164 1403943.25   80  875          - 1341969.90      -   536 3280s
 45254 25149 1405187.26  117  956          - 1341969.90      -   534 3451s
 47804 26763 1344037.38   86  885          - 1341969.90      -   530 3547s
 50319 28451 infeasible  116               - 1341969.90      -   525 3563s
 52691 30504 1351134.92   84  904          - 1341969.90      -   523 3577s
 55532 32571 1351135.28  109  986          - 1341969.90      -   516 3588s
 58463 34557 1381949.80  135 1042          - 1341969.90      -   511 3599s
 61249 34757 1341969.90   74  931          - 1341969.90      -   507 3600s

Cutting planes:
  Cover: 34
  Implied bound: 72
  Clique: 8
  MIR: 2
  Flow cover: 2
  RLT: 62
  Relax-and-lift: 10

Explored 61545 nodes (31217310 simplex iterations) in 3600.01 seconds (545.83 work units)
Thread count was 32 (of 64 available processors)

Solution count 0

Time limit reached
Best objective -, best bound 1.341969896714e+06, gap -
Gurobi 12.0.1: time limit, without a feasible solution
3.12173e+07 simplex iterations
61545 branching nodes
con2_1,25: 0.00000001
con2_2,48: 0.00079859
con2_2,89: 0.00039332
con2_2,109: 0.00024545
con2_3,12: 0.00000034
con2_4,18: 0.04323191
con2_5,58: 0.00000001
con2_5,114: 0.00012401
con2_6,10: 0.00000001
con2_7,34: 0.29739604
con2_8,78: 0.00011866
con2_9,22: 0.00004087
con2_9,29: 0.00000208
con2_9,59: 0.00000001
con2_10,72: 0.00000001
con2_11,48: 0.00033467
con2_11,52: 0.00022212
con2_12,22: 0.00000034
con2_13,45: 0.32504405
con2_14,97: 0.00000001
con2_15,128: 0.00000004
con2_16,110: 0.00000000
con2_17,54: 0.00017504
con2_17,83: 0.00036069
con2_18,23: 0.00591194
con2_19,84: 0.02218529
con2_20,18: 0.00792057
con2_20,23: 0.00491264
con2_20,50: 0.00712153
con2_21,68: 0.01221309
con2_21,130: 0.00262775
con2_22,135: 0.00000004
con2_23,65: 0.00171092
con2_24,8: 0.00011925
con2_24,36: 0.00000018
con2_24,99: 0.00000019
con2_25,49: 0.00000001
con2_26,16: 0.00000001
con2_27,14: 0.00005018
con2_27,65: 0.00013740
con2_27,94: 0.00030411
con2_28,111: 0.00058380
con2_29,103: 0.00000008
con2_30,38: 0.19260464
con2_31,37: 0.00002637
con2_31,104: 0.00008125
con2_32,58: 0.00000498
con2_32,67: 0.00000001
con2_33,45: 0.00000001
con2_34,78: 0.20695445
con2_35,44: 0.00000315
con2_35,85: 0.00000001
con2_36,75: 0.00015737
con2_37,5: 0.00187389
con2_37,76: 0.00003329
con2_38,130: 0.11992368
con2_39,17: 0.00030734
con2_40,43: 0.00011400
con2_41,17: 0.00062860
con2_41,54: 0.00027590
con2_42,36: 0.00000017
con2_42,69: 0.00011847
con2_43,10: 0.00075585
con2_44,66: 0.00000315
con2_45,125: 0.00000001
con2_46,64: 0.00000001
con2_47,53: 0.00027724
con2_47,91: 0.00146419
con2_48,52: 0.00012803
con2_49,33: 0.00000001
con2_50,4: 0.03430612
con2_51,28: 0.00000010
con2_52,81: 0.00004179
con2_53,63: 0.00007050
con2_53,91: 0.00014589
con2_54,93: 0.08243575
con2_55,77: 0.00000338
con2_55,97: 0.00000262
con2_55,100: 0.00017376
con2_56,54: 0.00005067
con2_56,90: 0.00004865
con2_57,31: 0.00001083
con2_58,60: 0.00000001
con2_59,126: 0.00000076
con2_60,32: 0.00005836
con2_60,57: 0.00015239
con2_60,74: 0.00000001
con2_61,93: 0.03624758
con2_62,42: 0.00000001
con2_63,87: 0.00000021
con2_64,91: 0.00000001
con2_65,96: 0.00008850
con2_66,85: 0.00000314
con2_67,16: 0.00000001
con2_68,20: 0.00086717
con2_68,94: 0.00127100
con2_69,106: 0.00011773
con2_70,87: 0.00000002
con2_71,9: 0.00000001
con2_71,119: 0.00011605
con2_72,62: 0.00000001
con2_73,28: 0.00000010
con2_73,32: 0.00000001
con2_74,26: 0.00000001
con2_74,67: 0.00000158
con2_75,42: 0.00000002
con2_75,101: 0.00000002
con2_76,5: 0.00000001
con2_76,59: 0.00000001
con2_76,126: 0.00000264
con2_77,57: 0.00001955
con2_78,47: 0.00019499
con2_78,53: 0.00184257
con2_79,71: 0.00000001
con2_80,6: 0.02036835
con2_80,10: 0.00007780
con2_81,104: 0.00004146
con2_82,80: 0.00027275
con2_83,39: 0.00043176
con2_83,40: 0.00011098
con2_84,123: 0.03133164
con2_85,6: 0.00000001
con2_85,43: 0.00006299
con2_86,28: 0.00106477
con2_86,58: 0.00014639
con2_87,77: 0.00000980
con2_88,114: 0.17959199
con2_89,80: 0.00029974
con2_89,109: 0.01540500
con2_90,1: 0.00004147
con2_91,87: 0.00000001
con2_92,111: 0.00045266
con2_93,19: 0.01704972
con2_94,129: 0.00106284
con2_95,51: 0.00013944
con2_95,73: 0.00000002
con2_96,47: 0.00008895
con2_97,100: 0.00000001
con2_98,118: 0.27168217
con2_99,63: 0.00000019
con2_100,46: 0.00000001
con2_101,24: 0.00013909
con2_101,70: 0.00000002
con2_102,35: 0.00000001
con2_102,134: 0.00000005
con2_103,51: 0.00000010
con2_103,95: 0.00000007
con2_104,101: 0.00000448
con2_105,103: 0.00000009
con2_105,108: 0.00015076
con2_106,75: 0.00011741
con2_107,116: 0.00984250
con2_108,95: 0.00000008
con2_109,52: 0.23045890
con2_109,82: 0.00028135
con2_110,14: 0.00000001
con2_110,49: 0.00000000
con2_111,86: 0.00034645
con2_111,114: 0.00044835
con2_112,29: 0.00000012
con2_112,105: 0.00000008
con2_112,108: 0.00000008
con2_113,2: 0.00004874
con2_114,92: 0.00045777
con2_115,22: 0.00000011
con2_115,138: 0.00000010
con2_116,142: 0.00350498
con2_117,79: 0.00000097
con2_118,90: 0.01157053
con2_119,115: 0.00013503
con2_120,39: 0.01202104
con2_121,128: 0.00000004
con2_122,107: 0.01202104
con2_123,50: 0.01645438
con2_124,121: 0.00395568
con2_125,1: 0.00000000
con2_125,49: 0.00000001
con2_126,11: 0.00007060
con2_126,104: 0.00000550
con2_127,136: 0.00075953
con2_128,112: 0.00000001
con2_129,21: 0.00133196
con2_130,61: 0.02977130
con2_130,93: 0.03374016
con2_131,102: 0.02541040
con2_132,133: 0.01303922
con2_133,41: 0.00314977
con2_134,141: 0.00002640
con2_135,59: 0.00000004
con2_135,113: 0.00004948
con2_136,141: 0.00022842
con2_137,143: 0.00000004
con2_138,3: 0.00000034
con2_139,134: 0.00000004
con2_140,121: 0.00000004
con2_141,102: 0.00000004
con2_142,15: 0.00000004
con2_143,79: 0.00000001
con2_143,117: 0.00000099
total_cost: 9083210.456503557
solve_time: 3600.289302
